
Gurobi 9.5.1 (linux64) logging started Fri 05 Aug 2022 08:00:17 PM MST

Set parameter LogFile to value "/home/local/ASUAD/kmajd1/NNRepLayer_v2/demos/walking_example/dynamic_constraint/repair_net/logs/opt_log_8_5_2022_19_55_48.log"
Gurobi Optimizer version 9.5.1 build v9.5.1rc2 (linux64)
Thread count: 48 physical cores, 96 logical processors, using up to 48 threads
Optimize a model with 137514 rows, 85903 columns and 2248746 nonzeros
Model fingerprint: 0x4c1ee565
Model has 270 quadratic objective terms
Variable types: 51343 continuous, 34560 integer (34560 binary)
Coefficient statistics:
  Matrix range     [3e-05, 2e+02]
  Objective range  [1e-02, 1e+00]
  QObjective range [7e-02, 7e-02]
  Bounds range     [1e-04, 7e+02]
  RHS range        [2e-05, 2e+02]

Concurrent MIP optimizer: 3 concurrent instances (16 threads per instance)

Presolve removed 1820 rows and 640 columns (presolve time = 5s) ...
Presolve removed 1820 rows and 640 columns (presolve time = 10s) ...
Presolve removed 1820 rows and 640 columns
Presolve time: 10.16s
Presolved: 135694 rows, 85263 columns, 2245674 nonzeros
Presolved model has 270 quadratic objective terms
Variable types: 50703 continuous, 34560 integer (34560 binary)
Root relaxation presolve removed 34560 rows and 34560 columns (presolve time = 5s) ...
Root relaxation presolve removed 34560 rows and 34560 columns (presolve time = 10s) ...
Root relaxation presolve removed 34560 rows and 34560 columns
Root relaxation presolved: 101134 rows, 50703 columns, 2141994 nonzeros
Root relaxation presolved model has 270 quadratic objective terms


Root simplex log...

Iteration    Objective       Primal Inf.    Dual Inf.      Time
       0    2.9758405e+01   0.000000e+00   0.000000e+00     27s
   42143    2.9758405e+01   0.000000e+00   0.000000e+00     30s
   42143    2.9758405e+01   0.000000e+00   0.000000e+00     30s

Root relaxation: objective 2.975840e+01, 42143 iterations, 17.38 seconds (39.03 work units)

    Nodes    |    Current Node    |     Objective Bounds      |     Work
 Expl Unexpl |  Obj  Depth IntInf | Incumbent    BestBd   Gap | It/Node Time

     0     0      -    -    -              -   29.75840      -     -   35s
     0     0      -    -    -              -   29.75840      -     -  143s
     0     2      -    -    -              -   29.75840      -     -  295s
     1     4      -    -    -              -   29.75840      -     -  372s
     3     8      -    -    -              -   29.75840      -     -  453s
     7    16      -    -    -              -   29.75840      -     -  476s
    15    32      -    -    -              -   29.75840      -     -  486s
    47    64      -    -    -              -   29.75840      -     -  490s
    95   112      -    -    -              -   29.75840      -     -  495s
   143   160      -    -    -              -   29.75840      -     -  500s
   191   208      -    -    -              -   29.75840      -     -  506s
   207   224      -    -    -              -   29.75840      -     -  513s
   223   252      -    -    -              -   29.75840      -     -  517s
   251   277      -    -    -              -   29.75840      -     -  553s
   276   307      -    -    -              -   29.75840      -     -  555s
   368   401      -    -    -              -   29.75840      -     -  561s
   429   460      -    -    -              -   29.75840      -     -  567s
   459   492      -    -    -              -   29.75840      -     -  570s
   523   566      -    -    -              -   29.75840      -     -  577s
   565   612      -    -    -              -   29.75840      -     -  580s
   655   717      -    -    -              -   29.75840      -     -  587s
   791   868      -    -    -              -   29.75840      -     -  592s
   867   939      -    -    -              -   29.75840      -     -  595s
  1014  1090      -    -    -              -   29.75840      -     -  601s
  1176  1256      -    -    -              -   29.75840      -     -  606s
  1338  1432      -    -    -              -   29.75840      -     -  612s
  1431  1525      -    -    -              -   29.75840      -     -  615s
  1629  1728      -    -    -              -   29.75840      -     -  621s
  1844  1961      -    -    -              -   29.75840      -     -  627s
  1960  2078      -    -    -              -   29.75840      -     -  631s
  2205  2338      -    -    -              -   29.75840      -     -  638s
  2337  2462      -    -    -              -   29.75840      -     -  641s
  2461  2603      -    -    -              -   29.75840      -     -  645s
  2741  2890      -    -    -              -   29.75840      -     -  653s
  2889  3030      -    -    -              -   29.75840      -     -  657s
  3029  3189      -    -    -              -   29.75840      -     -  662s
  3188  3354      -    -    -              -   29.75840      -     -  666s
  3353  3541      -    -    -              -   29.75840      -     -  671s
  3540  3739      -    -    -              -   29.75840      -     -  676s
  3738  3926      -    -    -              -   29.75840      -     -  681s
  3925  4137      -    -    -              -   29.75840      -     -  688s
  4136  4360      -    -    -              -   29.75840      -     -  696s
  4359  4594      -    -    -              -   29.75840      -     -  703s
  4593  4827      -    -    -              -   29.75840      -     -  709s
  4826  5083      -    -    -              -   29.75840      -     -  716s
  5082  5342      -    -    -              -   29.75840      -     -  723s
  5341  5586      -    -    -              -   29.75840      -     -  730s
  5585  5862      -    -    -              -   29.75840      -     -  737s
  5861  6149      -    -    -              -   29.75840      -     -  745s
  6148  6412      -    -    -              -   29.75840      -     -  753s
  6411  6717      -    -    -              -   29.75840      -     -  762s
  6716  7059      -    -    -              -   29.75840      -     -  769s
  7058  7366      -    -    -              -   29.75840      -     -  780s
  7365  7659      -    -    -              -   29.75840      -     -  788s
  7658  8008      -    -    -              -   29.75840      -     -  816s
  8007  8352      -    -    -              -   29.75840      -     -  833s
  8351  8664      -    -    -              -   29.75840      -     -  841s
  8663  8883      -    -    -              -   29.75840      -     -  922s
  8882  9281      -    -    -              -   29.75840      -     -  932s
  9280  9712      -    -    -              -   29.75840      -     -  952s
  9711 10091      -    -    -              -   29.75840      -     -  967s
 10090 10406      -    -    -              -   29.75840      -     -  975s
 10406 10407      -    -    -              -   29.75840      -     -  987s
 10408 10408      -    -    -              -   29.75840      -     - 1070s
 10410  9395      -    -    -       31.82119   29.75840  6.48%     - 1883s
 10411  9398      -    -    -       31.82119   29.75840  6.48%     - 1909s
 10413  9402      -    -    -       31.82119   29.75840  6.48%     - 1914s
 10417  9408      -    -    -       31.82119   29.75840  6.48%     - 1987s
 10425  9422      -    -    -       31.82119   29.75840  6.48%     - 2081s
 10441  9432      -    -    -       31.82119   29.75840  6.48%     - 2089s
 10457  9443      -    -    -       31.82119   29.75840  6.48%     - 2091s
 10473  9454      -    -    -       31.82119   29.75840  6.48%     - 2133s
 10489  9464      -    -    -       31.82119   29.75840  6.48%     - 2142s
 10532  9493      -    -    -       31.82119   29.75840  6.48%     - 2147s
 10559  9511      -    -    -       31.82119   29.75840  6.48%     - 2150s
 10591  9545      -    -    -       31.82119   29.75840  6.48%     - 2168s
 10620  9553      -    -    -       31.82119   29.75840  6.48%     - 2173s
 10637  9575      -    -    -       31.82119   29.75840  6.48%     - 2177s
 10665  9584      -    -    -       31.82119   29.75840  6.48%     - 2184s
 10683  9614      -    -    -       31.82119   29.75840  6.48%     - 2190s
 10738  9649      -    -    -       31.82119   29.75840  6.48%     - 2197s
 10773  9655      -    -    -       31.79854   29.75840  6.42%     - 3695s
 10790  9228      -    -    -       31.79561   29.75840  6.41%     - 3701s
 10839  9261      -    -    -       31.79561   29.75840  6.41%     - 3711s
 10888  9294      -    -    -       31.79561   29.75840  6.41%     - 3717s
 10938  9334      -    -    -       31.79561   29.75840  6.41%     - 3723s
 10994  9368      -    -    -       31.79561   29.75840  6.41%     - 3728s
 11047  9404      -    -    -       31.79561   29.75840  6.41%     - 3733s
 11101  9456      -    -    -       31.79561   29.75840  6.41%     - 3739s
 11171  9501      -    -    -       31.79561   29.75840  6.41%     - 3746s
 11239  9548      -    -    -       31.79561   29.75840  6.41%     - 3753s
 11309  9597      -    -    -       31.79561   29.75840  6.41%     - 3760s
 11381  9644      -    -    -       31.79561   29.75840  6.41%     - 3768s
 11452  9699      -    -    -       31.79561   29.75840  6.41%     - 3775s
 11531  9752      -    -    -       31.79561   29.75840  6.41%     - 3783s
 11610  9796      -    -    -       31.79561   29.75840  6.41%     - 3791s
 11680  9859      -    -    -       31.79561   29.75840  6.41%     - 3799s
 11767  9924      -    -    -       31.79561   29.75840  6.41%     - 3808s
 11861  9909      -    -    -       31.79561   29.75840  6.41%     - 6084s
 11877  9049      -    -    -       31.77925   29.75840  6.36%     - 7769s
 11893  7996      -    -    -       31.75065   29.75840  6.27%     - 7777s
 11995  7978      -    -    -       31.75065   29.75840  6.27%     - 9868s
 12011  7115      -    -    -       31.73704   29.75840  6.23%     - 9880s
 12138  7204      -    -    -       31.73704   29.75840  6.23%     - 9893s
 12269  7297      -    -    -       31.73704   29.75840  6.23%     - 9905s
 12406  7393      -    -    -       31.73704   29.75840  6.23%     - 9916s
 12548  7495      -    -    -       31.73704   29.75840  6.23%     - 9929s
 12697  7604      -    -    -       31.73704   29.75840  6.23%     - 9943s
 12856  7711      -    -    -       31.73704   29.75840  6.23%     - 9953s
 13016  7816      -    -    -       31.73704   29.75840  6.23%     - 10016s
 13174  7945      -    -    -       31.73704   29.75840  6.23%     - 10029s
 13356  8076      -    -    -       31.73704   29.75840  6.23%     - 10042s
 13547  8211      -    -    -       31.73704   29.75840  6.23%     - 10057s
 13746  8347      -    -    -       31.73704   29.75840  6.23%     - 10089s
 13948  8430      -    -    -       31.73704   29.75840  6.23%     - 10156s
 14099  8605      -    -    -       31.73704   29.75840  6.23%     - 10169s
 14324  8783      -    -    -       31.73704   29.75840  6.23%     - 10181s
 14577  8944      -    -    -       31.73704   29.75840  6.23%     - 10195s
 14822  9108      -    -    -       31.73704   29.75840  6.23%     - 10240s
 15068  9258      -    -    -       31.73704   29.75840  6.23%     - 10274s
 15300  9483      -    -    -       31.73704   29.75840  6.23%     - 10294s
 15602  9670      -    -    -       31.73704   29.75840  6.23%     - 10321s
 15890  9916      -    -    -       31.73704   29.75840  6.23%     - 10338s
 16232 10156      -    -    -       31.73704   29.75840  6.23%     - 10356s
 16586 10332      -    -    -       31.73704   29.75840  6.23%     - 10383s
 16880 10573      -    -    -       31.73704   29.75840  6.23%     - 10413s
 17219 10852      -    -    -       31.73704   29.75840  6.23%     - 10445s
 17611 11107      -    -    -       31.73704   29.75840  6.23%     - 10520s
 17997 11365      -    -    -       31.73704   29.75840  6.23%     - 10550s
 18383 11645      -    -    -       31.73704   29.75840  6.23%     - 10579s
 18792 11907      -    -    -       31.73704   29.75840  6.23%     - 10611s
 19190 12188      -    -    -       31.73704   29.75840  6.23%     - 10644s
 19604 12506      -    -    -       31.73704   29.75840  6.23%     - 10678s
 20060 12771      -    -    -       31.73704   29.75840  6.23%     - 10727s
 20477 13140      -    -    -       31.73704   29.75840  6.23%     - 10787s
 20985 14211      -    -    -       31.73704   29.75840  6.23%     - 12012s
 22225 15717      -    -    -       31.73704   29.75840  6.23%     - 12174s
 24145 15127      -    -    -       31.73704   29.75840  6.23%     - 12991s
 24195 16069      -    -    -       31.73704   29.75840  6.23%     - 13116s
 25157 17091      -    -    -       31.73704   29.75840  6.23%     - 13235s
 26502 16363      -    -    -       31.73704   29.75840  6.23%     - 14415s
 26518 16356      -    -    -       31.71710   29.75840  6.18%     - 16327s
 26771 17379      -    -    -       31.71708   29.75840  6.18%     - 16456s
 27794 17802      -    -    -       31.71708   29.75840  6.18%     - 16571s
 28217 18517      -    -    -       31.71708   29.75840  6.18%     - 16760s
 28932 20003      -    -    -       31.71708   29.75840  6.18%     - 16921s
 30430 21450      -    -    -       31.71708   29.75840  6.18%     - 17065s
 31913 21787      -    -    -       31.71708   29.75840  6.18%     - 17173s
 32252 22603      -    -    -       31.71708   29.75840  6.18%     - 17345s
 33080 23537      -    -    -       31.71708   29.75840  6.18%     - 17487s
 34032 23765      -    -    -       31.71708   29.75840  6.18%     - 18776s
 34264 25028      -    -    -       31.71708   29.75840  6.18%     - 18991s
 35537 25367      -    -    -       31.71708   29.75840  6.18%     - 19385s
 35880 25695      -    -    -       31.71708   29.75840  6.18%     - 20103s
 36220 27473      -    -    -       31.71708   29.75840  6.18%     - 20341s
 38014 27699      -    -    -       31.71708   29.75840  6.18%     - 20612s
 38240 27937      -    -    -       31.71708   29.75840  6.18%     - 21272s
 38480 28520      -    -    -       31.71708   29.75840  6.18%     - 21665s
 39063 28650      -    -    -       31.71708   29.75840  6.18%     - 22617s
 39195 29932      -    -    -       31.71708   29.75840  6.18%     - 23273s
 40511 30097      -    -    -       31.71708   29.75840  6.18%     - 24113s
 40684 30268      -    -    -       31.71708   29.75840  6.18%     - 24425s
 40863 31771      -    -    -       31.71708   29.75840  6.18%     - 24761s
 42374 32053      -    -    -       31.71708   29.75840  6.18%     - 31083s
 42656 33107      -    -    -       31.71708   29.75840  6.18%     - 46829s
 43714 35002      -    -    -       31.71350   29.75840  6.16%     - 55615s
 45655 37184      -    -    -       31.71350   29.75840  6.16%     - 61352s
 47853 37916      -    -    -       31.71350   29.75840  6.16%     - 65274s
 48601 38578      -    -    -       31.71350   29.75840  6.16%     - 69730s
 49271 40333      -    -    -       31.71350   29.75840  6.16%     - 73729s
 51036 40811      -    -    -       31.71350   29.75840  6.16%     - 80042s

Resetting heuristic parameters to focus on improving solution
(using Heuristics=0.5 and RINS=10)...

 51516 40914      -    -    -       31.71350   29.75840  6.16%     - 83691s
 51627 41004      -    -    -       31.70830   29.75840  6.15%     - 86583s

Instance 1 was solved

Explored 49986 nodes (469428211 simplex iterations) in 86584.14 seconds (209910.70 work units)
Thread count was 16 (of 96 available processors)

Solution count 10: 31.7083 31.7135 31.7165 ... 31.7381 

Time limit reached
Best objective 3.170829880429e+01, best bound 2.975840494966e+01, gap 6.1495%
